src/LKH/IO/anjos-80-02.tour
NAME : anjos-80-02.-182.tour
COMMENT : Length = -182
COMMENT : Found by LKH [Keld Helsgaun] Sun Apr 13 17:05:01 2025
TYPE : TOUR
DIMENSION : 80
TOUR_SECTION
1
25
71
21
76
59
35
3
57
18
60
74
47
15
32
78
68
31
65
30
5
41
56
46
4
39
53
12
67
23
58
43
7
75
45
73
13
69
70
48
26
62
10
17
66
34
49
28
54
20
36
40
29
22
33
77
24
11
61
72
16
19
8
6
14
50
52
42
51
2
64
9
44
55
79
37
80
63
27
38
-1
EOF
